p edge 67
e 0 3
e 0 40
e 0 50
e 1 13
e 1 36
e 1 41
e 2 23
e 2 27
e 2 33
e 2 39
e 2 54
e 3 19
e 3 22
e 3 24
e 3 40
e 3 50
e 3 61
e 4 17
e 4 20
e 4 34
e 4 38
e 5 16
e 5 17
e 5 20
e 5 45
e 5 64
e 6 11
e 6 16
e 6 20
e 7 22
e 7 24
e 7 45
e 7 48
e 7 64
e 8 21
e 8 25
e 8 35
e 8 47
e 8 55
e 8 58
e 8 59
e 9 31
e 9 49
e 9 63
e 10 28
e 10 39
e 11 14
e 11 16
e 11 18
e 11 24
e 11 45
e 12 23
e 12 27
e 12 39
e 13 41
e 13 43
e 13 46
e 13 66
e 14 18
e 14 19
e 14 26
e 14 61
e 14 62
e 15 36
e 15 51
e 15 53
e 16 20
e 16 45
e 17 20
e 17 64
e 18 24
e 18 61
e 19 50
e 19 61
e 19 62
e 21 29
e 21 31
e 21 42
e 21 49
e 22 24
e 22 40
e 22 48
e 22 55
e 22 59
e 23 27
e 23 32
e 23 54
e 24 45
e 24 61
e 25 47
e 25 51
e 25 53
e 26 62
e 27 39
e 28 65
e 29 31
e 29 40
e 29 42
e 30 32
e 30 33
e 30 34
e 30 38
e 30 54
e 30 57
e 31 49
e 32 34
e 33 54
e 33 57
e 34 38
e 35 53
e 35 56
e 35 58
e 36 47
e 36 51
e 36 52
e 37 48
e 37 58
e 37 59
e 38 57
e 40 55
e 40 60
e 41 43
e 41 44
e 41 52
e 42 55
e 42 60
e 43 44
e 43 46
e 44 63
e 45 64
e 46 66
e 47 49
e 47 51
e 47 52
e 48 59
e 49 52
e 49 63
e 50 62
e 51 53
e 55 59
e 55 60
e 56 58
e 58 59
c k 28
